1 1 -2 0
1 1 -3 0
1 1 -4 0
1 -1 5 0
1 1 6 0
1 -1 7 0
1 2 -8 0
1 2 -3 0
1 2 4 0
1 -2 -7 0
1 -9 10 0
1 9 -11 0
1 -9 12 0
1 -9 -3 0
1 9 -4 0
1 -9 13 0
1 9 14 0
1 -9 15 0
1 9 5 0
1 9 -7 0
1 -12 10 0
1 12 11 0
1 12 16 0
1 12 -3 0
1 12 -4 0
1 12 13 0
1 -12 -14 0
1 -12 9 0
1 -12 5 0
1 12 7 0
1 4 -17 0
1 4 -18 0
1 4 -19 0
1 -4 12 0
1 -4 2 0
1 4 20 0
1 4 21 0
1 4 9 0
1 4 7 0
1 -7 22 0
1 7 -17 0
1 7 -18 0
1 -7 19 0
1 7 -12 0
1 7 -4 0
1 7 20 0
1 -7 21 0
1 7 23 0
1 -7 9 0
1 3 17 0
1 -3 24 0
1 3 -12 0
1 -3 -2 0
1 3 25 0
1 3 -20 0
1 -3 -26 0
1 3 27 0
1 3 9 0
1 -3 1 0
1 3 5 0
1 -5 17 0
1 -5 28 0
1 -5 12 0
1 -5 -2 0
1 5 3 0
1 5 26 0
1 -5 27 0
1 -5 -9 0
1 5 1 0
1 -5 -29 0
1 23 10 0
1 -23 -11 0
1 -23 19 0
1 23 -4 0
1 23 13 0
1 23 -14 0
1 23 -27 0
1 23 -7 0
1 -19 10 0
1 -19 11 0
1 -19 24 0
1 -19 -4 0
1 19 -13 0
1 -19 14 0
1 19 -23 0
1 21 10 0
1 21 -18 0
1 21 30 0
1 21 -4 0
1 -21 13 0
1 -21 31 0
1 -21 -26 0
1 -21 32 0
1 -21 7 0
1 18 10 0
1 18 33 0
1 18 28 0
1 18 -30 0
1 -18 4 0
1 18 13 0
1 -18 21 0
1 -18 -32 0
1 18 7 0
1 14 -34 0
1 14 -35 0
1 -14 -11 0
1 14 -18 0
1 14 19 0
1 -14 -12 0
1 14 -36 0
1 -14 37 0
1 -14 38 0
1 14 39 0
1 14 -23 0
1 14 9 0
1 11 34 0
1 -11 40 0
1 -11 -18 0
1 -11 -19 0
1 -11 -12 0
1 11 36 0
1 -11 37 0
1 11 -38 0
1 11 14 0
1 11 21 0
1 11 -23 0
1 11 -9 0
1 -11 -41 0
1 13 -42 0
1 -13 17 0
1 -13 -18 0
1 13 -19 0
1 13 -12 0
1 13 36 0
1 13 -43 0
1 -13 -44 0
1 -13 20 0
1 -13 21 0
1 -13 23 0
1 13 -9 0
1 -13 41 0
1 10 -45 0
1 10 18 0
1 10 -12 0
1 10 36 0
1 -10 13 0
1 10 43 0
1 -10 20 0
1 10 -21 0
1 10 9 0
1 10 -41 0
1 -38 -35 0
1 -38 -11 0
1 38 -33 0
1 38 -30 0
1 -38 -14 0
1 38 20 0
1 -38 31 0
1 38 32 0
1 35 -11 0
1 35 17 0
1 -35 -33 0
1 -35 -30 0
1 35 38 0
1 35 -14 0
1 35 -31 0
1 -35 -32 0
1 37 34 0
1 37 11 0
1 -37 30 0
1 37 -43 0
1 -37 -14 0
1 -37 31 0
1 37 -32 0
1 34 -42 0
1 -34 33 0
1 -34 -30 0
1 -34 -37 0
1 34 14 0
1 -34 -31 0
1 34 32 0
1 32 -35 0
1 32 -18 0
1 -32 30 0
1 32 46 0
1 32 -37 0
1 32 21 0
1 32 -47 0
1 32 -48 0
1 30 -34 0
1 30 35 0
1 -30 18 0
1 -30 -49 0
1 -30 -46 0
1 -30 -37 0
1 -30 -38 0
1 -30 21 0
1 30 32 0
1 -30 48 0
1 31 -34 0
1 -31 35 0
1 31 -18 0
1 31 -33 0
1 31 -46 0
1 31 -50 0
1 -31 -36 0
1 31 37 0
1 -31 38 0
1 -31 -21 0
1 31 -51 0
1 -31 -48 0
1 -31 52 0
1 31 41 0
1 33 -34 0
1 33 -35 0
1 -33 -18 0
1 33 53 0
1 33 46 0
1 -33 50 0
1 33 -36 0
1 -33 -37 0
1 -33 -38 0
1 33 21 0
1 -33 31 0
1 33 48 0
1 33 -52 0
1 33 41 0
1 -6 54 0
1 6 -55 0
1 -6 8 0
1 6 56 0
1 6 57 0
1 6 -1 0
1 6 58 0
1 8 54 0
1 8 55 0
1 -8 -2 0
1 8 59 0
1 8 -57 0
1 8 6 0
1 15 -55 0
1 15 -60 0
1 -15 -61 0
1 15 16 0
1 -15 57 0
1 15 -62 0
1 15 63 0
1 15 9 0
1 15 -64 0
1 16 -54 0
1 -16 55 0
1 16 60 0
1 -16 -61 0
1 16 -12 0
1 16 65 0
1 -16 -56 0
1 -16 -57 0
1 16 62 0
1 16 15 0
1 55 -66 0
1 -55 28 0
1 55 67 0
1 55 24 0
1 -55 -16 0
1 -55 8 0
1 55 57 0
1 -55 68 0
1 -55 -27 0
1 -55 15 0
1 55 -6 0
1 57 55 0
1 57 66 0
1 -57 -28 0
1 57 24 0
1 57 -16 0
1 -57 -8 0
1 57 -69 0
1 -57 68 0
1 57 26 0
1 57 27 0
1 57 15 0
1 -57 6 0
1 -54 -70 0
1 -54 66 0
1 54 -71 0
1 -54 16 0
1 -54 -8 0
1 54 68 0
1 -54 -72 0
1 -54 73 0
1 -54 -15 0
1 -54 -6 0
1 56 54 0
1 -56 66 0
1 56 74 0
1 -56 16 0
1 -56 8 0
1 56 75 0
1 56 68 0
1 -56 -72 0
1 -56 -73 0
1 -56 15 0
1 56 -6 0
1 -27 -60 0
1 27 24 0
1 -27 61 0
1 27 -57 0
1 27 -62 0
1 -27 63 0
1 27 -23 0
1 27 73 0
1 -24 -55 0
1 24 -60 0
1 24 19 0
1 24 61 0
1 24 3 0
1 24 57 0
1 -24 62 0
1 -24 27 0
1 -24 5 0
1 -26 -55 0
1 26 28 0
1 -26 60 0
1 -26 -61 0
1 26 -76 0
1 -26 77 0
1 26 -3 0
1 26 -57 0
1 26 62 0
1 -26 21 0
1 26 -63 0
1 -26 -72 0
1 26 78 0
1 26 79 0
1 26 -5 0
1 28 -55 0
1 -28 18 0
1 28 -60 0
1 28 74 0
1 -28 61 0
1 28 76 0
1 28 -3 0
1 28 57 0
1 -28 -62 0
1 -28 -26 0
1 -28 -78 0
1 28 -79 0
1 28 5 0
1 -61 -80 0
1 61 63 0
1 -61 42 0
1 -61 17 0
1 -61 28 0
1 -61 -24 0
1 61 81 0
1 61 -16 0
1 61 82 0
1 61 -43 0
1 61 -20 0
1 61 26 0
1 61 -27 0
1 -61 -15 0
1 -63 -80 0
1 63 42 0
1 63 -17 0
1 63 -28 0
1 63 -24 0
1 -63 -61 0
1 -63 -16 0
1 -63 82 0
1 63 43 0
1 -63 -20 0
1 -63 26 0
1 -63 83 0
1 63 27 0
1 63 15 0
1 -60 84 0
1 -60 -28 0
1 60 85 0
1 -60 24 0
1 60 -16 0
1 -60 86 0
1 -60 -62 0
1 -60 -26 0
1 60 27 0
1 -60 15 0
1 62 -80 0
1 -62 -84 0
1 62 -66 0
1 62 -28 0
1 62 60 0
1 62 -24 0
1 62 -16 0
1 62 82 0
1 -62 86 0
1 -62 -68 0
1 62 26 0
1 62 87 0
1 -62 27 0
1 -20 -10 0
1 -20 17 0
1 20 61 0
1 -20 76 0
1 20 77 0
1 20 3 0
1 20 -4 0
1 -20 -13 0
1 -20 -38 0
1 -20 68 0
1 -20 -63 0
1 -20 78 0
1 20 79 0
1 20 5 0
1 20 -7 0
1 -17 -10 0
1 17 -35 0
1 17 -66 0
1 17 -61 0
1 17 -76 0
1 17 77 0
1 17 3 0
1 -17 -4 0
1 -17 -13 0
1 -17 -20 0
1 17 63 0
1 17 78 0
1 -17 79 0
1 17 -5 0
1 -17 7 0
1 -43 -22 0
1 -43 -10 0
1 43 42 0
1 43 61 0
1 -43 -77 0
1 -43 -88 0
1 43 -13 0
1 -43 -37 0
1 43 86 0
1 43 63 0
1 -43 -78 0
1 -43 -79 0
1 -43 29 0
1 -42 -22 0
1 42 34 0
1 -42 10 0
1 42 84 0
1 -42 76 0
1 -42 -77 0
1 -42 25 0
1 -42 -88 0
1 -42 -13 0
1 -42 43 0
1 42 -63 0
1 42 -78 0
1 42 79 0
1 -42 29 0
1 -77 42 0
1 -77 17 0
1 77 28 0
1 -77 -89 0
1 -77 50 0
1 -77 90 0
1 77 -36 0
1 -77 -43 0
1 -77 20 0
1 77 26 0
1 77 -79 0
1 -77 -91 0
1 -77 52 0
1 -77 41 0
1 -79 -42 0
1 -79 28 0
1 -79 -77 0
1 79 -89 0
1 -79 -50 0
1 -79 -92 0
1 79 -43 0
1 79 20 0
1 79 26 0
1 -79 91 0
1 -79 52 0
1 79 41 0
1 -76 80 0
1 -76 42 0
1 76 17 0
1 76 -28 0
1 76 -93 0
1 -76 -89 0
1 -76 94 0
1 -76 -82 0
1 -76 43 0
1 76 20 0
1 -76 26 0
1 -76 -78 0
1 76 -91 0
1 76 -95 0
1 78 80 0
1 -78 42 0
1 -78 -28 0
1 -78 -76 0
1 -78 -89 0
1 -78 82 0
1 78 43 0
1 78 -20 0
1 -78 -26 0
1 78 96 0
1 -78 -91 0
1 -78 95 0
1 36 -22 0
1 -36 10 0
1 -36 11 0
1 36 33 0
1 36 77 0
1 -36 -25 0
1 -36 82 0
1 -36 13 0
1 -36 -88 0
1 -36 -14 0
1 -36 31 0
1 -36 79 0
1 36 29 0
1 -36 -41 0
1 -41 80 0
1 41 -10 0
1 -41 -22 0
1 41 11 0
1 41 -33 0
1 -41 -77 0
1 41 -25 0
1 41 36 0
1 41 88 0
1 -41 -13 0
1 41 -14 0
1 -41 -31 0
1 -41 -79 0
1 -41 -29 0
1 -50 -22 0
1 50 -45 0
1 -50 40 0
1 -50 33 0
1 50 77 0
1 50 94 0
1 -50 25 0
1 -50 88 0
1 50 -44 0
1 50 39 0
1 -50 31 0
1 -50 79 0
1 50 -52 0
1 -50 -29 0
1 -52 22 0
1 -52 -45 0
1 52 -40 0
1 52 33 0
1 -52 77 0
1 -52 25 0
1 52 88 0
1 52 -39 0
1 52 31 0
1 52 29 0
1 52 -79 0
1 52 -95 0
1 88 22 0
1 88 42 0
1 -88 97 0
1 88 98 0
1 88 46 0
1 -88 50 0
1 88 -36 0
1 -88 4 0
1 -88 99 0
1 -88 43 0
1 88 -100 0
1 -88 101 0
1 88 -48 0
1 -88 52 0
1 -88 -41 0
1 22 102 0
1 22 -42 0
1 22 -97 0
1 22 -98 0
1 -22 -46 0
1 -22 50 0
1 -22 -36 0
1 -22 88 0
1 -22 43 0
1 22 -7 0
1 -22 101 0
1 -22 48 0
1 -22 52 0
1 -22 -41 0
1 -25 42 0
1 -25 97 0
1 -25 -103 0
1 -25 -89 0
1 25 -50 0
1 -25 3 0
1 25 -36 0
1 25 -104 0
1 -25 -43 0
1 -25 100 0
1 25 -105 0
1 25 91 0
1 -25 -52 0
1 -25 -41 0
1 -29 42 0
1 -29 -97 0
1 29 -103 0
1 29 -50 0
1 29 36 0
1 29 43 0
1 29 -5 0
1 -29 100 0
1 -29 105 0
1 29 -52 0
1 29 106 0
1 -29 -41 0
1 46 22 0
1 46 -45 0
1 -46 -33 0
1 46 40 0
1 -46 -30 0
1 -46 89 0
1 46 88 0
1 46 -44 0
1 -46 39 0
1 -46 -31 0
1 46 32 0
1 -46 -48 0
1 48 -22 0
1 48 -45 0
1 -48 -40 0
1 -48 33 0
1 -48 -30 0
1 -48 -88 0
1 48 -44 0
1 48 -39 0
1 48 31 0
1 48 32 0
1 48 91 0
1 -98 22 0
1 -98 -45 0
1 -98 -40 0
1 98 -53 0
1 -98 -101 0
1 -98 49 0
1 98 103 0
1 98 88 0
1 98 -44 0
1 -98 39 0
1 -98 51 0
1 -98 -47 0
1 101 22 0
1 -101 -40 0
1 -101 53 0
1 -101 98 0
1 101 44 0
1 101 -39 0
1 -101 51 0
1 -101 47 0
1 101 -105 0
1 39 -107 0
1 -39 40 0
1 39 108 0
1 39 98 0
1 39 46 0
1 -39 50 0
1 -39 -109 0
1 39 -110 0
1 -39 -111 0
1 39 -112 0
1 39 101 0
1 39 48 0
1 39 52 0
1 40 -107 0
1 40 113 0
1 40 -108 0
1 -40 -114 0
1 -40 98 0
1 40 46 0
1 -40 -109 0
1 40 110 0
1 -40 -39 0
1 40 112 0
1 40 101 0
1 40 -48 0
1 40 -52 0
1 44 45 0
1 44 -107 0
1 -44 115 0
1 -44 97 0
1 -44 -98 0
1 -44 46 0
1 -44 -50 0
1 44 -13 0
1 44 109 0
1 44 116 0
1 44 117 0
1 44 100 0
1 -44 101 0
1 44 -48 0
1 -44 52 0
1 45 10 0
1 -45 118 0
1 -45 -107 0
1 45 -115 0
1 -45 98 0
1 45 46 0
1 -45 -50 0
1 45 44 0
1 -45 117 0
1 -45 -100 0
1 -45 48 0
1 45 52 0
1 114 40 0
1 114 53 0
1 -114 49 0
1 114 97 0
1 -114 -39 0
1 -114 -112 0
1 112 -40 0
1 112 53 0
1 -112 -114 0
1 -112 49 0
1 -112 -39 0
1 -112 51 0
1 112 100 0
1 112 -47 0
1 -108 -40 0
1 108 -53 0
1 -108 -115 0
1 -108 -49 0
1 -108 110 0
1 -108 -39 0
1 108 51 0
1 108 -47 0
1 -110 40 0
1 110 108 0
1 110 -53 0
1 110 49 0
1 110 -117 0
1 -110 -51 0
1 110 -47 0
1 -47 119 0
1 47 108 0
1 -47 -114 0
1 -47 -49 0
1 47 -98 0
1 -47 120 0
1 47 -110 0
1 -47 112 0
1 -47 -32 0
1 47 101 0
1 -47 -121 0
1 -49 -119 0
1 -49 108 0
1 49 30 0
1 49 114 0
1 -49 98 0
1 -49 120 0
1 49 -112 0
1 49 101 0
1 -49 -47 0
1 51 -119 0
1 -51 -122 0
1 -51 -107 0
1 51 108 0
1 51 53 0
1 -51 -114 0
1 51 -98 0
1 -51 -120 0
1 51 -123 0
1 51 -109 0
1 51 110 0
1 51 31 0
1 -51 -112 0
1 -51 124 0
1 -53 122 0
1 53 107 0
1 53 -108 0
1 53 -125 0
1 53 114 0
1 -53 120 0
1 -53 -123 0
1 53 -51 0
1 53 -110 0
1 53 112 0
1 53 101 0
1 58 126 0
1 58 -127 0
1 -58 -59 0
1 -58 128 0
1 -58 -129 0
1 58 6 0
1 -59 126 0
1 59 127 0
1 -59 -8 0
1 -59 -128 0
1 59 58 0
1 -64 -126 0
1 64 -127 0
1 -64 130 0
1 64 65 0
1 -64 -131 0
1 -64 -128 0
1 -64 132 0
1 64 15 0
1 -64 133 0
1 65 127 0
1 65 -130 0
1 65 16 0
1 65 -131 0
1 -65 128 0
1 65 -133 0
1 -65 -132 0
1 -65 -64 0
1 -129 127 0
1 129 -71 0
1 129 65 0
1 129 59 0
1 129 -72 0
1 129 -134 0
1 129 -73 0
1 129 -64 0
1 129 -58 0
1 -127 -129 0
1 -127 -74 0
1 127 135 0
1 -127 -71 0
1 -127 -65 0
1 -127 59 0
1 -127 72 0
1 127 -73 0
1 127 64 0
1 128 -136 0
1 128 126 0
1 -128 65 0
1 128 59 0
1 128 64 0
1 128 58 0
1 -126 137 0
1 126 65 0
1 126 59 0
1 126 -128 0
1 126 -64 0
1 126 58 0
1 73 -54 0
1 -73 127 0
1 -73 -71 0
1 -73 -130 0
1 73 131 0
1 -73 -56 0
1 73 129 0
1 -73 27 0
1 73 -132 0
1 -73 133 0
1 71 -54 0
1 -71 127 0
1 71 -24 0
1 -71 -131 0
1 71 -132 0
1 -71 -56 0
1 71 73 0
1 71 -133 0
1 72 -138 0
1 -72 54 0
1 72 -74 0
1 72 -127 0
1 -72 131 0
1 72 139 0
1 -72 140 0
1 72 -56 0
1 -72 -129 0
1 -72 132 0
1 -72 133 0
1 72 -141 0
1 74 -138 0
1 -74 -54 0
1 74 129 0
1 74 28 0
1 -74 130 0
1 74 -131 0
1 74 -139 0
1 -74 -140 0
1 -74 56 0
1 -74 -72 0
1 -74 132 0
1 74 133 0
1 -74 -141 0
1 -133 66 0
1 -133 71 0
1 133 65 0
1 133 131 0
1 133 142 0
1 -133 -86 0
1 133 -68 0
1 133 72 0
1 -133 64 0
1 -133 -143 0
1 -131 144 0
1 131 -84 0
1 131 66 0
1 131 74 0
1 -131 71 0
1 -131 -65 0
1 -131 145 0
1 131 142 0
1 131 86 0
1 131 -68 0
1 131 -133 0
1 -131 72 0
1 -131 73 0
1 -132 -144 0
1 132 74 0
1 -132 -71 0
1 -132 65 0
1 -132 -142 0
1 -132 -72 0
1 132 -73 0
1 132 146 0
1 -132 -64 0
1 -130 -144 0
1 -130 74 0
1 -130 -71 0
1 -130 65 0
1 -130 132 0
1 130 -142 0
1 130 -72 0
1 130 73 0
1 -130 -64 0
1 -68 -138 0
1 -68 -55 0
1 -68 66 0
1 68 60 0
1 -68 -131 0
1 68 140 0
1 68 56 0
1 -68 57 0
1 68 -62 0
1 -68 -20 0
1 -68 133 0
1 68 141 0
1 66 138 0
1 66 54 0
1 -66 -55 0
1 66 60 0
1 66 -131 0
1 -66 139 0
1 -66 -140 0
1 66 56 0
1 -66 57 0
1 -66 68 0
1 -66 133 0
1 -66 -141 0
1 -86 -138 0
1 86 84 0
1 86 -70 0
1 86 67 0
1 -86 60 0
1 -86 131 0
1 -86 139 0
1 86 140 0
1 -86 -75 0
1 -86 43 0
1 -86 -69 0
1 -86 -62 0
1 -86 133 0
1 86 -141 0
1 84 -138 0
1 84 -42 0
1 84 -67 0
1 -84 -60 0
1 -84 131 0
1 -84 -139 0
1 -84 140 0
1 -84 75 0
1 -84 -86 0
1 84 -62 0
1 84 69 0
1 84 133 0
1 -84 141 0
1 138 -147 0
1 -138 -84 0
1 138 -66 0
1 -138 -74 0
1 138 -148 0
1 -138 -140 0
1 -138 -82 0
1 138 -86 0
1 138 -68 0
1 -138 -72 0
1 -138 149 0
1 138 -95 0
1 -140 -80 0
1 140 138 0
1 -140 -84 0
1 -140 66 0
1 140 -74 0
1 -140 148 0
1 -140 -94 0
1 140 150 0
1 -140 82 0
1 -140 86 0
1 140 -68 0
1 -140 149 0
1 -140 -95 0
1 -141 -144 0
1 -141 84 0
1 141 -66 0
1 141 -151 0
1 -141 74 0
1 141 -139 0
1 -141 -152 0
1 141 -142 0
1 141 -86 0
1 -141 68 0
1 -141 72 0
1 141 -149 0
1 -141 153 0
1 139 144 0
1 -139 -84 0
1 139 66 0
1 -139 -74 0
1 139 -148 0
1 139 154 0
1 139 142 0
1 -139 -86 0
1 139 -68 0
1 139 72 0
1 139 -153 0
1 -82 -80 0
1 -82 -138 0
1 -82 70 0
1 82 -67 0
1 82 -60 0
1 -82 -61 0
1 82 -76 0
1 -82 -140 0
1 -82 -36 0
1 -82 -142 0
1 -82 75 0
1 -82 -69 0
1 82 62 0
1 -82 -63 0
1 -82 -78 0
1 -80 -138 0
1 80 -144 0
1 -80 67 0
1 -80 -60 0
1 80 -61 0
1 -80 76 0
1 -80 -140 0
1 -80 82 0
1 80 75 0
1 -80 -69 0
1 -80 62 0
1 -80 63 0
1 -80 78 0
1 80 -41 0
1 -94 138 0
1 -94 67 0
1 -94 85 0
1 -94 -76 0
1 94 50 0
1 -94 -140 0
1 94 -152 0
1 94 69 0
1 94 87 0
1 -94 -78 0
1 94 95 0
1 -95 138 0
1 95 70 0
1 -95 -67 0
1 -95 85 0
1 -95 -81 0
1 95 140 0
1 95 75 0
1 -95 69 0
1 -95 -87 0
1 -95 83 0
1 -95 78 0
1 -95 52 0
1 -95 153 0
1 -67 -80 0
1 67 -84 0
1 -67 -55 0
1 -67 -155 0
1 67 156 0
1 67 103 0
1 67 -89 0
1 -67 94 0
1 67 82 0
1 67 -86 0
1 -67 -69 0
1 -67 157 0
1 67 -105 0
1 67 91 0
1 67 95 0
1 -69 -80 0
1 -69 84 0
1 -69 67 0
1 69 156 0
1 -69 103 0
1 -69 89 0
1 -69 82 0
1 69 57 0
1 69 86 0
1 69 -158 0
1 69 -105 0
1 69 91 0
1 -69 -95 0
1 -70 80 0
1 -70 54 0
1 -70 84 0
1 -70 159 0
1 70 148 0
1 70 -94 0
1 70 -82 0
1 70 -75 0
1 -70 86 0
1 -70 -157 0
1 -70 -160 0
1 70 -149 0
1 70 95 0
1 -75 -80 0
1 -75 -84 0
1 -75 -70 0
1 -75 -156 0
1 -75 -159 0
1 75 -148 0
1 75 -94 0
1 -75 -56 0
1 -75 -161 0
1 75 86 0
1 75 157 0
1 -75 160 0
1 -75 -149 0
1 -75 95 0
1 -89 67 0
1 -89 85 0
1 89 -81 0
1 89 -76 0
1 -89 46 0
1 89 -77 0
1 89 -148 0
1 89 -25 0
1 -89 69 0
1 89 -87 0
1 -89 -83 0
1 89 -78 0
1 89 79 0
1 89 -91 0
1 -89 29 0
1 91 -67 0
1 -91 -81 0
1 -91 -76 0
1 -91 79 0
1 -91 77 0
1 91 -89 0
1 91 -25 0
1 -91 69 0
1 -91 87 0
1 91 83 0
1 -91 -78 0
1 91 -48 0
1 -91 -149 0
1 -91 -29 0
1 -103 -67 0
1 -103 96 0
1 103 -85 0
1 -103 81 0
1 -103 -98 0
1 -103 -93 0
1 -103 -159 0
1 103 -90 0
1 -103 25 0
1 -103 69 0
1 -103 -87 0
1 -103 83 0
1 -103 -105 0
1 103 92 0
1 103 -29 0
1 105 -67 0
1 105 85 0
1 105 81 0
1 -105 103 0
1 -105 -93 0
1 105 90 0
1 105 25 0
1 -105 -69 0
1 -105 -87 0
1 -105 83 0
1 105 -101 0
1 -105 -96 0
1 -105 -160 0
1 105 92 0
1 105 29 0
1 81 -83 0
1 -81 162 0
1 81 115 0
1 81 61 0
1 -81 -163 0
1 -81 103 0
1 81 89 0
1 81 -94 0
1 -81 -164 0
1 -81 -117 0
1 -81 -100 0
1 81 105 0
1 81 91 0
1 -81 95 0
1 83 162 0
1 83 115 0
1 -83 97 0
1 -83 -81 0
1 -83 103 0
1 83 89 0
1 -83 -94 0
1 83 -164 0
1 -83 -117 0
1 83 63 0
1 -83 -100 0
1 83 -165 0
1 83 105 0
1 83 91 0
1 -83 -95 0
1 85 -162 0
1 85 -60 0
1 -85 -166 0
1 -85 -167 0
1 85 -156 0
1 85 89 0
1 -85 -94 0
1 85 -164 0
1 85 -87 0
1 -85 -168 0
1 -85 -157 0
1 -85 105 0
1 85 -95 0
1 87 162 0
1 -87 169 0
1 -87 85 0
1 -87 166 0
1 -87 -156 0
1 -87 -103 0
1 87 89 0
1 -87 -94 0
1 -87 164 0
1 87 62 0
1 87 -168 0
1 -87 -105 0
1 -87 -91 0
1 87 95 0
1 97 -22 0
1 -97 -45 0
1 97 83 0
1 97 81 0
1 -97 -156 0
1 97 93 0
1 -97 90 0
1 -97 25 0
1 -97 44 0
1 -97 -100 0
1 97 -96 0
1 -97 92 0
1 -97 -29 0
1 -100 22 0
1 -100 45 0
1 100 -97 0
1 100 81 0
1 -100 93 0
1 -100 90 0
1 100 25 0
1 -100 -88 0
1 100 -44 0
1 100 -112 0
1 -100 -83 0
1 100 -157 0
1 100 -96 0
1 100 92 0
1 -100 -29 0
1 115 102 0
1 -115 45 0
1 -115 108 0
1 115 166 0
1 115 81 0
1 -115 93 0
1 -115 -90 0
1 115 -104 0
1 -115 -44 0
1 115 117 0
1 115 -96 0
1 -115 -92 0
1 117 102 0
1 -117 -45 0
1 117 115 0
1 -117 -81 0
1 117 93 0
1 117 -90 0
1 117 104 0
1 117 -99 0
1 -117 44 0
1 117 110 0
1 117 83 0
1 -117 96 0
1 117 92 0
1 -117 106 0
1 -90 170 0
1 -90 115 0
1 -90 97 0
1 90 103 0
1 90 -77 0
1 90 171 0
1 90 172 0
1 90 109 0
1 90 117 0
1 -90 100 0
1 90 105 0
1 90 -92 0
1 92 -170 0
1 92 122 0
1 92 107 0
1 92 115 0
1 92 -97 0
1 92 -103 0
1 92 -90 0
1 92 -172 0
1 -92 123 0
1 -92 -109 0
1 92 -117 0
1 92 100 0
1 -92 -105 0
1 92 -173 0
1 -93 -170 0
1 93 174 0
1 -93 162 0
1 -93 -115 0
1 -93 96 0
1 93 76 0
1 93 -103 0
1 93 -175 0
1 93 -172 0
1 93 176 0
1 93 -164 0
1 93 -117 0
1 -93 100 0
1 93 -105 0
1 96 170 0
1 96 -174 0
1 -96 -162 0
1 -96 115 0
1 96 97 0
1 96 103 0
1 -96 93 0
1 96 172 0
1 -96 -176 0
1 -96 164 0
1 96 100 0
1 96 -78 0
1 96 -105 0
1 -96 -177 0
1 107 -102 0
1 107 -40 0
1 107 -162 0
1 -107 53 0
1 -107 -90 0
1 107 -104 0
1 107 -99 0
1 107 44 0
1 -107 39 0
1 107 -51 0
1 -107 92 0
1 109 -102 0
1 -109 -45 0
1 109 -107 0
1 -109 40 0
1 109 -53 0
1 -109 -90 0
1 109 104 0
1 109 -99 0
1 109 164 0
1 109 39 0
1 -109 51 0
1 -109 -92 0
1 -109 -106 0
1 -122 102 0
1 122 -174 0
1 -122 118 0
1 122 -113 0
1 -122 -53 0
1 122 -90 0
1 122 104 0
1 122 -123 0
1 -122 99 0
1 122 -116 0
1 122 111 0
1 122 51 0
1 122 92 0
1 -122 -106 0
1 123 -102 0
1 -123 -122 0
1 123 -118 0
1 -123 -113 0
1 -123 -53 0
1 -123 90 0
1 123 -104 0
1 123 -176 0
1 123 99 0
1 123 116 0
1 123 -111 0
1 123 -51 0
1 123 92 0
1 123 106 0
1 -99 119 0
1 99 -102 0
1 99 122 0
1 99 107 0
1 99 -115 0
1 -99 -178 0
1 -99 179 0
1 99 120 0
1 99 -123 0
1 -99 88 0
1 -99 -117 0
1 99 180 0
1 99 -181 0
1 102 119 0
1 -102 22 0
1 -102 -122 0
1 -102 107 0
1 -102 178 0
1 -102 179 0
1 102 -123 0
1 -102 99 0
1 -102 -109 0
1 -102 117 0
1 -102 -180 0
1 102 -181 0
1 104 -170 0
1 104 -122 0
1 104 107 0
1 -104 -115 0
1 104 -178 0
1 -104 -182 0
1 -104 25 0
1 104 -172 0
1 104 123 0
1 -104 -109 0
1 104 -117 0
1 104 180 0
1 -104 -106 0
1 104 -183 0
1 -106 -170 0
1 106 122 0
1 106 107 0
1 -106 178 0
1 106 -182 0
1 106 172 0
1 106 123 0
1 -106 104 0
1 106 109 0
1 106 117 0
1 -106 -180 0
1 106 -29 0
1 -106 183 0
1 119 -170 0
1 -119 -102 0
1 119 -118 0
1 -119 -113 0
1 119 -53 0
1 -119 49 0
1 -119 120 0
1 -119 99 0
1 119 116 0
1 119 -111 0
1 -119 51 0
1 -119 -47 0
1 -120 -119 0
1 -120 -102 0
1 -120 -118 0
1 120 113 0
1 -120 -53 0
1 120 49 0
1 120 172 0
1 120 -99 0
1 120 -116 0
1 -120 111 0
1 -120 51 0
1 -120 47 0
1 -181 102 0
1 181 -118 0
1 181 -113 0
1 181 125 0
1 -181 179 0
1 -181 116 0
1 181 111 0
1 -181 -124 0
1 181 121 0
1 -181 -183 0
1 179 102 0
1 -179 -118 0
1 -179 113 0
1 -179 -125 0
1 -179 -184 0
1 179 -182 0
1 179 99 0
1 -179 116 0
1 -179 111 0
1 -179 124 0
1 -179 121 0
1 -111 -119 0
1 -111 122 0
1 -111 113 0
1 -111 185 0
1 -111 186 0
1 -111 -120 0
1 -111 -123 0
1 -111 39 0
1 111 -187 0
1 111 -188 0
1 -111 -181 0
1 113 -119 0
1 113 -122 0
1 113 40 0
1 -113 185 0
1 -113 186 0
1 -113 179 0
1 113 -123 0
1 113 111 0
1 113 187 0
1 -113 -188 0
1 113 -181 0
1 116 -119 0
1 -116 -118 0
1 -116 189 0
1 116 -178 0
1 116 -179 0
1 116 -120 0
1 116 -123 0
1 116 -44 0
1 -116 -190 0
1 116 180 0
1 118 -119 0
1 118 -122 0
1 118 -45 0
1 -118 189 0
1 -118 -178 0
1 -118 179 0
1 -118 120 0
1 118 123 0
1 -118 -116 0
1 -118 -190 0
1 118 -180 0
1 118 181 0
1 -188 113 0
1 -188 -125 0
1 -188 -184 0
1 -188 -111 0
1 -188 -124 0
1 188 121 0
1 -188 -180 0
1 186 -113 0
1 186 125 0
1 186 184 0
1 -186 -178 0
1 186 -111 0
1 186 124 0
1 186 121 0
1 -186 188 0
1 -187 113 0
1 -187 -125 0
1 187 185 0
1 187 184 0
1 -187 -111 0
1 -187 -124 0
1 -187 -121 0
1 -187 -190 0
1 -185 -121 0
1 -185 113 0
1 185 125 0
1 185 189 0
1 185 -124 0
1 -185 -187 0
1 121 185 0
1 -121 184 0
1 -121 -186 0
1 -121 179 0
1 121 187 0
1 121 -188 0
1 121 181 0
1 -184 121 0
1 184 49 0
1 184 185 0
1 184 186 0
1 184 -187 0
1 -184 188 0
1 -184 181 0
1 -124 125 0
1 124 185 0
1 124 -186 0
1 124 179 0
1 -124 -51 0
1 -124 187 0
1 124 188 0
1 124 181 0
1 -125 -53 0
1 -125 185 0
1 125 -186 0
1 125 179 0
1 -125 -124 0
1 125 187 0
1 125 -181 0
1 142 -144 0
1 -142 137 0
1 -142 135 0
1 -142 130 0
1 -142 131 0
1 -142 -139 0
1 -142 -82 0
1 -142 136 0
1 142 -134 0
1 142 -132 0
1 -142 -133 0
1 142 141 0
1 -144 -80 0
1 144 -137 0
1 -144 135 0
1 -144 130 0
1 -144 -131 0
1 144 -139 0
1 144 -142 0
1 -144 136 0
1 144 134 0
1 -144 132 0
1 144 -133 0
1 -144 -141 0
1 -152 -137 0
1 -152 135 0
1 -152 -191 0
1 152 -145 0
1 -152 139 0
1 152 94 0
1 152 136 0
1 152 -134 0
1 152 146 0
1 -152 -143 0
1 152 141 0
1 152 -153 0
1 -153 -137 0
1 153 -135 0
1 153 191 0
1 153 145 0
1 153 139 0
1 153 -152 0
1 -153 -136 0
1 153 -134 0
1 153 146 0
1 -153 -143 0
1 -153 141 0
1 153 -95 0
1 134 144 0
1 134 -159 0
1 134 -148 0
1 134 192 0
1 134 -152 0
1 -134 142 0
1 -134 -129 0
1 -134 160 0
1 134 149 0
1 134 153 0
1 -135 -144 0
1 -135 127 0
1 -135 193 0
1 135 -148 0
1 135 152 0
1 -135 -142 0
1 -135 -134 0
1 -135 -160 0
1 135 -149 0
1 -135 -153 0
1 -136 144 0
1 -136 137 0
1 136 -152 0
1 136 142 0
1 136 -128 0
1 136 -194 0
1 136 153 0
1 137 144 0
1 -137 -126 0
1 137 195 0
1 137 152 0
1 137 142 0
1 137 -153 0
1 -148 -138 0
1 148 -70 0
1 148 135 0
1 -148 -191 0
1 -148 145 0
1 -148 89 0
1 -148 139 0
1 -148 -140 0
1 148 75 0
1 148 134 0
1 148 -146 0
1 -148 -149 0
1 148 141 0
1 149 138 0
1 -149 -141 0
1 149 70 0
1 -149 -191 0
1 -149 145 0
1 149 -139 0
1 149 148 0
1 -149 140 0
1 -149 134 0
1 149 91 0
1 -149 -143 0
1 159 -147 0
1 159 70 0
1 -159 135 0
1 -159 -191 0
1 -159 -103 0
1 159 145 0
1 -159 154 0
1 159 150 0
1 159 75 0
1 159 -146 0
1 -159 134 0
1 -159 160 0
1 -159 -143 0
1 159 -151 0
1 160 -147 0
1 160 70 0
1 160 -135 0
1 160 191 0
1 160 -159 0
1 160 145 0
1 -160 -154 0
1 -160 -150 0
1 160 75 0
1 -160 -105 0
1 160 146 0
1 -160 151 0
1 -143 -196 0
1 143 -156 0
1 -143 159 0
1 -143 -145 0
1 -143 -148 0
1 143 -197 0
1 143 -168 0
1 -143 157 0
1 -143 160 0
1 -143 -198 0
1 143 153 0
1 145 196 0
1 145 166 0
1 -145 156 0
1 145 131 0
1 145 -159 0
1 -145 -199 0
1 -145 -148 0
1 -145 -152 0
1 -145 -197 0
1 -145 -168 0
1 -145 157 0
1 -145 -160 0
1 -145 149 0
1 145 153 0
1 146 196 0
1 146 191 0
1 -146 159 0
1 -146 148 0
1 -146 132 0
1 -146 -152 0
1 -146 197 0
1 -146 -160 0
1 -146 200 0
1 146 149 0
1 -146 -153 0
1 191 -159 0
1 -191 -201 0
1 -191 148 0
1 191 -152 0
1 -191 197 0
1 -191 -160 0
1 191 -149 0
1 -191 153 0
1 156 -147 0
1 -156 -70 0
1 156 -67 0
1 -156 -85 0
1 156 97 0
1 156 -145 0
1 156 -154 0
1 156 -150 0
1 -156 -75 0
1 156 69 0
1 156 87 0
1 -156 157 0
1 156 143 0
1 -156 -151 0
1 157 -147 0
1 -157 70 0
1 -157 67 0
1 157 85 0
1 -157 -156 0
1 157 145 0
1 -157 154 0
1 -157 -150 0
1 157 69 0
1 -157 87 0
1 157 -100 0
1 -157 -143 0
1 -157 151 0
1 166 -147 0
1 166 202 0
1 166 -155 0
1 -166 115 0
1 -166 145 0
1 166 -154 0
1 166 150 0
1 166 161 0
1 166 -158 0
1 -166 87 0
1 -166 168 0
1 166 -143 0
1 166 151 0
1 -168 147 0
1 168 -202 0
1 168 -155 0
1 -168 -85 0
1 168 -166 0
1 -168 -145 0
1 -168 -154 0
1 168 -150 0
1 168 -161 0
1 168 -158 0
1 -168 -87 0
1 -168 -117 0
1 -168 143 0
1 -168 -151 0
1 -147 203 0
1 147 -204 0
1 147 162 0
1 -147 -166 0
1 -147 156 0
1 -147 159 0
1 147 -150 0
1 -147 -205 0
1 147 176 0
1 -147 164 0
1 -147 -168 0
1 -147 157 0
1 -147 -160 0
1 150 147 0
1 -150 -203 0
1 150 174 0
1 150 -162 0
1 150 -166 0
1 150 -156 0
1 150 -159 0
1 150 -205 0
1 150 -176 0
1 -150 -206 0
1 -150 164 0
1 -150 168 0
1 -150 157 0
1 150 160 0
1 151 207 0
1 151 203 0
1 151 208 0
1 151 -166 0
1 151 156 0
1 151 159 0
1 151 154 0
1 151 -205 0
1 151 209 0
1 -151 -197 0
1 -151 168 0
1 -151 157 0
1 -151 -160 0
1 151 -141 0
1 154 -208 0
1 154 -196 0
1 -154 -166 0
1 154 159 0
1 -154 139 0
1 154 -210 0
1 -154 -205 0
1 -154 209 0
1 154 -197 0
1 -154 168 0
1 -154 157 0
1 154 -160 0
1 -154 -151 0
1 162 -147 0
1 162 -107 0
1 -162 202 0
1 162 196 0
1 -162 85 0
1 162 -155 0
1 162 -81 0
1 162 93 0
1 162 -150 0
1 162 -161 0
1 -162 -164 0
1 162 158 0
1 -162 -87 0
1 162 -83 0
1 -164 147 0
1 -164 202 0
1 164 -162 0
1 164 155 0
1 164 85 0
1 164 81 0
1 -164 -93 0
1 164 -150 0
1 164 109 0
1 164 161 0
1 164 -197 0
1 164 87 0
1 164 -158 0
1 164 83 0
1 -164 96 0
1 174 -147 0
1 -174 122 0
1 -174 208 0
1 -174 -202 0
1 -174 155 0
1 174 -167 0
1 -174 163 0
1 174 93 0
1 -174 150 0
1 174 176 0
1 174 -161 0
1 174 -158 0
1 -174 169 0
1 174 -165 0
1 174 96 0
1 176 -147 0
1 176 -174 0
1 176 -202 0
1 -176 -155 0
1 -176 -167 0
1 -176 -163 0
1 176 -93 0
1 -176 123 0
1 -176 -209 0
1 -176 -161 0
1 -176 -158 0
1 -176 -169 0
1 155 -170 0
1 -155 -174 0
1 155 162 0
1 155 67 0
1 155 -211 0
1 -155 182 0
1 -155 172 0
1 155 176 0
1 -155 -164 0
1 -155 -158 0
1 -155 -168 0
1 -155 183 0
1 -158 174 0
1 158 162 0
1 158 -155 0
1 158 -166 0
1 -158 -211 0
1 158 -182 0
1 158 176 0
1 158 -164 0
1 -158 -69 0
1 158 168 0
1 -158 -183 0
1 202 -212 0
1 -202 203 0
1 202 174 0
1 202 -70 0
1 -202 -166 0
1 202 -211 0
1 -202 -213 0
1 -202 -161 0
1 202 168 0
1 -161 212 0
1 -161 -203 0
1 161 174 0
1 -161 -202 0
1 -161 -162 0
1 -161 -166 0
1 161 211 0
1 161 -213 0
1 -161 205 0
1 161 176 0
1 161 -75 0
1 -161 164 0
1 -161 -168 0
1 170 -119 0
1 170 -203 0
1 -170 -155 0
1 170 167 0
1 170 163 0
1 -170 93 0
1 -170 90 0
1 -170 -104 0
1 -170 -158 0
1 -170 -169 0
1 -170 165 0
1 -170 -96 0
1 170 -92 0
1 170 -106 0
1 172 170 0
1 172 -155 0
1 172 167 0
1 -172 -163 0
1 -172 -93 0
1 172 90 0
1 -172 120 0
1 172 104 0
1 172 158 0
1 -172 -169 0
1 172 165 0
1 172 92 0
1 -172 106 0
1 183 212 0
1 -183 167 0
1 183 -163 0
1 183 175 0
1 -183 -182 0
1 183 -171 0
1 183 104 0
1 -183 158 0
1 -183 -169 0
1 183 165 0
1 183 173 0
1 -183 -181 0
1 -183 106 0
1 -182 167 0
1 -182 -183 0
1 182 175 0
1 182 179 0
1 -182 171 0
1 182 -104 0
1 -182 -158 0
1 -182 -169 0
1 182 -165 0
1 182 177 0
1 -182 -173 0
1 182 -106 0
1 -163 170 0
1 163 174 0
1 163 -165 0
1 163 81 0
1 -163 -189 0
1 163 -178 0
1 -163 -182 0
1 -163 172 0
1 -163 -176 0
1 -163 190 0
1 -163 -180 0
1 163 183 0
1 165 -170 0
1 -165 -174 0
1 165 189 0
1 -165 -163 0
1 -165 178 0
1 165 -182 0
1 165 -172 0
1 165 176 0
1 -165 -83 0
1 165 -190 0
1 165 -180 0
1 -165 -183 0
1 -167 -170 0
1 -167 174 0
1 167 85 0
1 -167 -214 0
1 167 211 0
1 167 182 0
1 -167 172 0
1 167 -176 0
1 -167 169 0
1 -167 215 0
1 167 -183 0
1 -169 170 0
1 169 174 0
1 -169 -211 0
1 169 182 0
1 169 172 0
1 169 -176 0
1 169 -87 0
1 169 215 0
1 169 -183 0
1 -180 102 0
1 180 -118 0
1 180 -163 0
1 -180 -178 0
1 180 -175 0
1 180 171 0
1 -180 99 0
1 180 165 0
1 -180 -177 0
1 180 188 0
1 180 -173 0
1 180 -106 0
1 178 102 0
1 -178 118 0
1 -178 -163 0
1 178 186 0
1 -178 175 0
1 178 -104 0
1 -178 -99 0
1 178 -116 0
1 178 -165 0
1 178 -177 0
1 178 -180 0
1 178 106 0
1 190 -189 0
1 -190 163 0
1 190 -175 0
1 190 171 0
1 -190 -116 0
1 190 165 0
1 190 -187 0
1 -190 177 0
1 -190 215 0
1 190 -173 0
1 -189 -118 0
1 -189 185 0
1 189 163 0
1 -189 214 0
1 189 175 0
1 189 177 0
1 189 171 0
1 -189 116 0
1 -189 165 0
1 189 -190 0
1 -189 173 0
1 -171 -189 0
1 171 -178 0
1 171 90 0
1 -171 182 0
1 171 173 0
1 -171 -190 0
1 -171 180 0
1 -171 -183 0
1 -173 -189 0
1 173 178 0
1 -173 -182 0
1 173 171 0
1 173 190 0
1 173 -92 0
1 -173 180 0
1 173 183 0
1 175 189 0
1 175 -93 0
1 175 182 0
1 175 -177 0
1 175 -190 0
1 175 180 0
1 -175 -183 0
1 177 -189 0
1 -177 178 0
1 177 175 0
1 -177 182 0
1 177 -96 0
1 177 190 0
1 -177 -180 0
1 -177 -183 0
1 196 -162 0
1 -196 -195 0
1 -196 -193 0
1 -196 145 0
1 -196 -154 0
1 -196 -197 0
1 196 194 0
1 -196 -192 0
1 -196 -146 0
1 -196 143 0
1 -196 151 0
1 -197 -196 0
1 -197 195 0
1 197 193 0
1 -197 -191 0
1 197 145 0
1 197 -154 0
1 197 164 0
1 197 194 0
1 -197 192 0
1 -197 146 0
1 197 143 0
1 -197 -151 0
1 -208 -174 0
1 208 -193 0
1 208 201 0
1 208 154 0
1 208 209 0
1 208 192 0
1 208 200 0
1 -208 -151 0
1 -209 -208 0
1 -209 -195 0
1 -209 -193 0
1 209 -201 0
1 209 199 0
1 -209 -154 0
1 209 176 0
1 209 194 0
1 -209 192 0
1 -209 200 0
1 -209 -198 0
1 209 151 0
1 -192 212 0
1 -192 203 0
1 -192 208 0
1 -192 -193 0
1 -192 -213 0
1 192 209 0
1 192 -197 0
1 -193 -212 0
1 -193 -203 0
1 -193 -208 0
1 -193 -196 0
1 -193 135 0
1 193 213 0
1 193 205 0
1 193 209 0
1 -193 197 0
1 -194 208 0
1 -194 -196 0
1 -194 209 0
1 194 136 0
1 -195 208 0
1 -195 -196 0
1 195 -137 0
1 -195 -209 0
1 195 -197 0
1 203 170 0
1 203 147 0
1 203 -202 0
1 203 193 0
1 -203 201 0
1 203 199 0
1 203 -150 0
1 -203 -205 0
1 203 -161 0
1 203 192 0
1 203 -200 0
1 -203 -198 0
1 -205 147 0
1 205 203 0
1 205 202 0
1 205 193 0
1 -205 201 0
1 -205 -199 0
1 -205 154 0
1 -205 -150 0
1 205 161 0
1 205 192 0
1 -205 -200 0
1 205 151 0
1 -212 207 0
1 212 204 0
1 212 202 0
1 -212 193 0
1 212 201 0
1 -212 199 0
1 212 210 0
1 212 206 0
1 212 161 0
1 212 192 0
1 212 -200 0
1 212 -198 0
1 -213 -212 0
1 213 207 0
1 -213 -201 0
1 -213 199 0
1 213 182 0
1 213 210 0
1 -213 206 0
1 -213 161 0
1 -213 -192 0
1 -213 200 0
1 -198 212 0
1 198 203 0
1 198 214 0
1 -198 211 0
1 198 -199 0
1 -198 -205 0
1 198 209 0
1 198 -215 0
1 -198 143 0
1 199 -212 0
1 199 -203 0
1 -199 -208 0
1 199 211 0
1 -199 -213 0
1 199 -205 0
1 199 209 0
1 -199 -215 0
1 199 -198 0
1 200 212 0
1 200 203 0
1 200 208 0
1 -200 -213 0
1 200 -205 0
1 -200 -146 0
1 201 212 0
1 -201 -203 0
1 201 208 0
1 201 213 0
1 -201 -205 0
1 201 -209 0
1 -201 200 0
1 211 -207 0
1 211 -204 0
1 -211 202 0
1 211 -155 0
1 -211 167 0
1 -211 199 0
1 211 210 0
1 211 -161 0
1 211 -158 0
1 -211 -169 0
1 211 198 0
1 215 -207 0
1 215 -204 0
1 -215 167 0
1 -215 -210 0
1 -215 -169 0
1 215 190 0
1 -215 -198 0
1 -214 -207 0
1 -214 204 0
1 214 -167 0
1 214 -189 0
1 -214 -199 0
1 214 210 0
1 -214 -206 0
1 214 169 0
1 214 -215 0
1 -214 198 0
1 204 -212 0
1 204 147 0
1 -204 214 0
1 204 -211 0
1 -204 -213 0
1 204 206 0
1 -204 -215 0
1 206 212 0
1 -206 204 0
1 206 -214 0
1 206 211 0
1 206 213 0
1 206 150 0
1 -206 215 0
1 207 212 0
1 207 -214 0
1 -207 211 0
1 -207 213 0
1 -207 -210 0
1 -207 215 0
1 207 151 0
1 210 212 0
1 210 -207 0
1 -210 214 0
1 210 -211 0
1 210 154 0
1 -210 -213 0
1 -210 215 0
